72 41 40 15 45 64 68 1 2 75 
67 55 8 56 61 23 47 
57 25 53 30 28 48 51 
33 54 29 46 39 34 
65 52 70 26 36 37 22 31 7 
24 63 62 44 58 5 4 66 49 3 
32 50 21 74 11 9 6 12 69 59 
43 42 18 19 38 14 
20 17 35 16 
13 27 10 60 
71 73 

